Route #1: 1 1 6 13 9 7 3 14 4 10 1 
Route #2: 1 18 5 15 2 8 16 17 12 11 1 

Cost 261.944
Time 0.0707


 * Another infos *

 Iterations: 19 Time: 0.0707 sec - 0.0012 min - 0.0000 horas
0.0000 h 0.0012 min
Problem dimension: 19
